NAME: C108
COMMENT: converted from Solomon txt
TYPE: VRPTW
VEHICLES: 25
DIMENSION: 101
CAPACITY: 200
EDGE_WEIGHT_TYPE: EUC_2D
NODE_COORD_SECTION
1	40.0	50.0
2	45.0	68.0
3	45.0	70.0
4	42.0	66.0
5	42.0	68.0
6	42.0	65.0
7	40.0	69.0
8	40.0	66.0
9	38.0	68.0
10	38.0	70.0
11	35.0	66.0
12	35.0	69.0
13	25.0	85.0
14	22.0	75.0
15	22.0	85.0
16	20.0	80.0
17	20.0	85.0
18	18.0	75.0
19	15.0	75.0
20	15.0	80.0
21	30.0	50.0
22	30.0	52.0
23	28.0	52.0
24	28.0	55.0
25	25.0	50.0
26	25.0	52.0
27	25.0	55.0
28	23.0	52.0
29	23.0	55.0
30	20.0	50.0
31	20.0	55.0
32	10.0	35.0
33	10.0	40.0
34	8.0	40.0
35	8.0	45.0
36	5.0	35.0
37	5.0	45.0
38	2.0	40.0
39	0.0	40.0
40	0.0	45.0
41	35.0	30.0
42	35.0	32.0
43	33.0	32.0
44	33.0	35.0
45	32.0	30.0
46	30.0	30.0
47	30.0	32.0
48	30.0	35.0
49	28.0	30.0
50	28.0	35.0
51	26.0	32.0
52	25.0	30.0
53	25.0	35.0
54	44.0	5.0
55	42.0	10.0
56	42.0	15.0
57	40.0	5.0
58	40.0	15.0
59	38.0	5.0
60	38.0	15.0
61	35.0	5.0
62	50.0	30.0
63	50.0	35.0
64	50.0	40.0
65	48.0	30.0
66	48.0	40.0
67	47.0	35.0
68	47.0	40.0
69	45.0	30.0
70	45.0	35.0
71	95.0	30.0
72	95.0	35.0
73	53.0	30.0
74	92.0	30.0
75	53.0	35.0
76	45.0	65.0
77	90.0	35.0
78	88.0	30.0
79	88.0	35.0
80	87.0	30.0
81	85.0	25.0
82	85.0	35.0
83	75.0	55.0
84	72.0	55.0
85	70.0	58.0
86	68.0	60.0
87	66.0	55.0
88	65.0	55.0
89	65.0	60.0
90	63.0	58.0
91	60.0	55.0
92	60.0	60.0
93	67.0	85.0
94	65.0	85.0
95	65.0	82.0
96	62.0	80.0
97	60.0	80.0
98	60.0	85.0
99	58.0	75.0
100	55.0	80.0
101	55.0	85.0
DEMAND_SECTION
1	0
2	10
3	30
4	10
5	10
6	10
7	20
8	20
9	20
10	10
11	10
12	10
13	20
14	30
15	10
16	40
17	40
18	20
19	20
20	10
21	10
22	20
23	20
24	10
25	10
26	40
27	10
28	10
29	20
30	10
31	10
32	20
33	30
34	40
35	20
36	10
37	10
38	20
39	30
40	20
41	10
42	10
43	20
44	10
45	10
46	10
47	30
48	10
49	10
50	10
51	10
52	10
53	10
54	20
55	40
56	10
57	30
58	40
59	30
60	10
61	20
62	10
63	20
64	50
65	10
66	10
67	10
68	10
69	10
70	10
71	30
72	20
73	10
74	10
75	50
76	20
77	10
78	10
79	20
80	10
81	10
82	30
83	20
84	10
85	20
86	30
87	10
88	20
89	30
90	10
91	10
92	10
93	20
94	40
95	10
96	30
97	10
98	30
99	20
100	10
101	20
DEPOT_SECTION
1
TIME_WINDOW_SECTION
1	0.0	1236.0
2	830.0	1049.0
3	756.0	939.0
4	16.0	336.0
5	643.0	866.0
6	15.0	226.0
7	499.0	824.0
8	87.0	308.0
9	150.0	429.0
10	429.0	710.0
11	279.0	488.0
12	363.0	590.0
13	547.0	826.0
14	30.0	280.0
15	489.0	698.0
16	318.0	495.0
17	394.0	609.0
18	33.0	226.0
19	68.0	365.0
20	176.0	447.0
21	10.0	265.0
22	836.0	1043.0
23	704.0	991.0
24	664.0	845.0
25	15.0	333.0
26	88.0	305.0
27	502.0	821.0
28	179.0	398.0
29	476.0	663.0
30	288.0	475.0
31	368.0	585.0
32	144.0	293.0
33	31.0	309.0
34	33.0	313.0
35	655.0	912.0
36	191.0	436.0
37	588.0	793.0
38	305.0	512.0
39	414.0	587.0
40	481.0	710.0
41	180.0	405.0
42	63.0	338.0
43	19.0	345.0
44	16.0	273.0
45	278.0	493.0
46	453.0	688.0
47	355.0	602.0
48	837.0	1127.0
49	539.0	786.0
50	867.0	1126.0
51	719.0	976.0
52	635.0	876.0
53	825.0	1056.0
54	193.0	440.0
55	78.0	365.0
56	35.0	287.0
57	308.0	513.0
58	35.0	246.0
59	376.0	629.0
60	519.0	872.0
61	463.0	728.0
62	412.0	729.0
63	181.0	398.0
64	100.0	289.0
65	539.0	786.0
66	12.0	223.0
67	753.0	948.0
68	12.0	275.0
69	669.0	842.0
70	836.0	1049.0
71	284.0	559.0
72	194.0	459.0
73	367.0	588.0
74	370.0	659.0
75	263.0	502.0
76	847.0	1130.0
77	119.0	344.0
78	469.0	748.0
79	50.0	295.0
80	573.0	826.0
81	694.0	895.0
82	47.0	356.0
83	293.0	496.0
84	154.0	449.0
85	360.0	621.0
86	470.0	697.0
87	76.0	335.0
88	25.0	260.0
89	551.0	802.0
90	640.0	899.0
91	20.0	276.0
92	756.0	969.0
93	257.0	552.0
94	409.0	584.0
95	209.0	412.0
96	130.0	305.0
97	36.0	283.0
98	470.0	713.0
99	30.0	248.0
100	628.0	935.0
101	530.0	843.0
SERVICE_TIME_SECTION
1	0.0
2	90.0
3	90.0
4	90.0
5	90.0
6	90.0
7	90.0
8	90.0
9	90.0
10	90.0
11	90.0
12	90.0
13	90.0
14	90.0
15	90.0
16	90.0
17	90.0
18	90.0
19	90.0
20	90.0
21	90.0
22	90.0
23	90.0
24	90.0
25	90.0
26	90.0
27	90.0
28	90.0
29	90.0
30	90.0
31	90.0
32	90.0
33	90.0
34	90.0
35	90.0
36	90.0
37	90.0
38	90.0
39	90.0
40	90.0
41	90.0
42	90.0
43	90.0
44	90.0
45	90.0
46	90.0
47	90.0
48	90.0
49	90.0
50	90.0
51	90.0
52	90.0
53	90.0
54	90.0
55	90.0
56	90.0
57	90.0
58	90.0
59	90.0
60	90.0
61	90.0
62	90.0
63	90.0
64	90.0
65	90.0
66	90.0
67	90.0
68	90.0
69	90.0
70	90.0
71	90.0
72	90.0
73	90.0
74	90.0
75	90.0
76	90.0
77	90.0
78	90.0
79	90.0
80	90.0
81	90.0
82	90.0
83	90.0
84	90.0
85	90.0
86	90.0
87	90.0
88	90.0
89	90.0
90	90.0
91	90.0
92	90.0
93	90.0
94	90.0
95	90.0
96	90.0
97	90.0
98	90.0
99	90.0
100	90.0
101	90.0
EOF
